
-4.8
-4.6
-4.32
-4.16
-4.16
-4.04
-3.96
-3.92
-3.88
-3.76
-3.64
-3.28
-2.76
-2.4
-2.0
-1.8
-1.28
-0.96
-0.84
-0.84
-0.32
-0.32
-0.32
-0.28
-0.28
-0.28
-0.24
-0.24
-0.24
-0.24
-0.2
-0.16
-0.12
-0.04
-0.04
-0.04
-0.04
0.0
0.0
0.0
0.0
0.0
0.0
0.0
0.0
0.0
0.0
0.0
0.0
0.0
0.0
0.0
0.0
0.0